c File: flat50_3_0.col
c
c SOURCE: Joseph Culberson (joe@cs.ualberta.ca)
c DESCRIPTION: Quasi-random coloring problem
c              generated with flatness = 0
c                             probability = 0.139
c                             known coloring = 3
c                             random seed = 1710
c              Creation Date:  Tue Jun  9 12:15:58 1998
c Maximum degree = 8 Minimum degree = 0
c p edge 50 115
c cnf created by edge2cnf
p cnf 150 545
-1 -2 0
-1 -3 0
-2 -3 0
1 2 3 0
-4 -5 0
-4 -6 0
-5 -6 0
4 5 6 0
-7 -8 0
-7 -9 0
-8 -9 0
7 8 9 0
-10 -11 0
-10 -12 0
-11 -12 0
10 11 12 0
-13 -14 0
-13 -15 0
-14 -15 0
13 14 15 0
-16 -17 0
-16 -18 0
-17 -18 0
16 17 18 0
-19 -20 0
-19 -21 0
-20 -21 0
19 20 21 0
-22 -23 0
-22 -24 0
-23 -24 0
22 23 24 0
-25 -26 0
-25 -27 0
-26 -27 0
25 26 27 0
-28 -29 0
-28 -30 0
-29 -30 0
28 29 30 0
-31 -32 0
-31 -33 0
-32 -33 0
31 32 33 0
-34 -35 0
-34 -36 0
-35 -36 0
34 35 36 0
-37 -38 0
-37 -39 0
-38 -39 0
37 38 39 0
-40 -41 0
-40 -42 0
-41 -42 0
40 41 42 0
-43 -44 0
-43 -45 0
-44 -45 0
43 44 45 0
-46 -47 0
-46 -48 0
-47 -48 0
46 47 48 0
-49 -50 0
-49 -51 0
-50 -51 0
49 50 51 0
-52 -53 0
-52 -54 0
-53 -54 0
52 53 54 0
-55 -56 0
-55 -57 0
-56 -57 0
55 56 57 0
-58 -59 0
-58 -60 0
-59 -60 0
58 59 60 0
-61 -62 0
-61 -63 0
-62 -63 0
61 62 63 0
-64 -65 0
-64 -66 0
-65 -66 0
64 65 66 0
-67 -68 0
-67 -69 0
-68 -69 0
67 68 69 0
-70 -71 0
-70 -72 0
-71 -72 0
70 71 72 0
-73 -74 0
-73 -75 0
-74 -75 0
73 74 75 0
-76 -77 0
-76 -78 0
-77 -78 0
76 77 78 0
-79 -80 0
-79 -81 0
-80 -81 0
79 80 81 0
-82 -83 0
-82 -84 0
-83 -84 0
82 83 84 0
-85 -86 0
-85 -87 0
-86 -87 0
85 86 87 0
-88 -89 0
-88 -90 0
-89 -90 0
88 89 90 0
-91 -92 0
-91 -93 0
-92 -93 0
91 92 93 0
-94 -95 0
-94 -96 0
-95 -96 0
94 95 96 0
-97 -98 0
-97 -99 0
-98 -99 0
97 98 99 0
-100 -101 0
-100 -102 0
-101 -102 0
100 101 102 0
-103 -104 0
-103 -105 0
-104 -105 0
103 104 105 0
-106 -107 0
-106 -108 0
-107 -108 0
106 107 108 0
-109 -110 0
-109 -111 0
-110 -111 0
109 110 111 0
-112 -113 0
-112 -114 0
-113 -114 0
112 113 114 0
-115 -116 0
-115 -117 0
-116 -117 0
115 116 117 0
-118 -119 0
-118 -120 0
-119 -120 0
118 119 120 0
-121 -122 0
-121 -123 0
-122 -123 0
121 122 123 0
-124 -125 0
-124 -126 0
-125 -126 0
124 125 126 0
-127 -128 0
-127 -129 0
-128 -129 0
127 128 129 0
-130 -131 0
-130 -132 0
-131 -132 0
130 131 132 0
-133 -134 0
-133 -135 0
-134 -135 0
133 134 135 0
-136 -137 0
-136 -138 0
-137 -138 0
136 137 138 0
-139 -140 0
-139 -141 0
-140 -141 0
139 140 141 0
-142 -143 0
-142 -144 0
-143 -144 0
142 143 144 0
-145 -146 0
-145 -147 0
-146 -147 0
145 146 147 0
-148 -149 0
-148 -150 0
-149 -150 0
148 149 150 0
-58 -1 0
-59 -2 0
-60 -3 0
-64 -1 0
-65 -2 0
-66 -3 0
-106 -1 0
-107 -2 0
-108 -3 0
-121 -1 0
-122 -2 0
-123 -3 0
-67 -7 0
-68 -8 0
-69 -9 0
-73 -7 0
-74 -8 0
-75 -9 0
-85 -7 0
-86 -8 0
-87 -9 0
-100 -7 0
-101 -8 0
-102 -9 0
-115 -7 0
-116 -8 0
-117 -9 0
-121 -7 0
-122 -8 0
-123 -9 0
-142 -7 0
-143 -8 0
-144 -9 0
-67 -10 0
-68 -11 0
-69 -12 0
-73 -10 0
-74 -11 0
-75 -12 0
-85 -10 0
-86 -11 0
-87 -12 0
-100 -10 0
-101 -11 0
-102 -12 0
-112 -10 0
-113 -11 0
-114 -12 0
-118 -10 0
-119 -11 0
-120 -12 0
-130 -10 0
-131 -11 0
-132 -12 0
-52 -13 0
-53 -14 0
-54 -15 0
-76 -13 0
-77 -14 0
-78 -15 0
-82 -13 0
-83 -14 0
-84 -15 0
-139 -13 0
-140 -14 0
-141 -15 0
-64 -16 0
-65 -17 0
-66 -18 0
-94 -16 0
-95 -17 0
-96 -18 0
-103 -16 0
-104 -17 0
-105 -18 0
-145 -16 0
-146 -17 0
-147 -18 0
-148 -16 0
-149 -17 0
-150 -18 0
-109 -19 0
-110 -20 0
-111 -21 0
-139 -19 0
-140 -20 0
-141 -21 0
-79 -22 0
-80 -23 0
-81 -24 0
-97 -22 0
-98 -23 0
-99 -24 0
-100 -22 0
-101 -23 0
-102 -24 0
-133 -22 0
-134 -23 0
-135 -24 0
-142 -22 0
-143 -23 0
-144 -24 0
-52 -25 0
-53 -26 0
-54 -27 0
-67 -25 0
-68 -26 0
-69 -27 0
-79 -25 0
-80 -26 0
-81 -27 0
-97 -25 0
-98 -26 0
-99 -27 0
-112 -25 0
-113 -26 0
-114 -27 0
-115 -25 0
-116 -26 0
-117 -27 0
-127 -25 0
-128 -26 0
-129 -27 0
-97 -28 0
-98 -29 0
-99 -30 0
-100 -28 0
-101 -29 0
-102 -30 0
-124 -28 0
-125 -29 0
-126 -30 0
-142 -28 0
-143 -29 0
-144 -30 0
-106 -31 0
-107 -32 0
-108 -33 0
-112 -31 0
-113 -32 0
-114 -33 0
-52 -37 0
-53 -38 0
-54 -39 0
-76 -37 0
-77 -38 0
-78 -39 0
-82 -37 0
-83 -38 0
-84 -39 0
-88 -37 0
-89 -38 0
-90 -39 0
-115 -37 0
-116 -38 0
-117 -39 0
-148 -37 0
-149 -38 0
-150 -39 0
-118 -40 0
-119 -41 0
-120 -42 0
-130 -40 0
-131 -41 0
-132 -42 0
-70 -43 0
-71 -44 0
-72 -45 0
-73 -43 0
-74 -44 0
-75 -45 0
-76 -43 0
-77 -44 0
-78 -45 0
-94 -43 0
-95 -44 0
-96 -45 0
-103 -43 0
-104 -44 0
-105 -45 0
-121 -43 0
-122 -44 0
-123 -45 0
-139 -43 0
-140 -44 0
-141 -45 0
-70 -46 0
-71 -47 0
-72 -48 0
-76 -46 0
-77 -47 0
-78 -48 0
-79 -46 0
-80 -47 0
-81 -48 0
-97 -46 0
-98 -47 0
-99 -48 0
-121 -46 0
-122 -47 0
-123 -48 0
-127 -46 0
-128 -47 0
-129 -48 0
-136 -46 0
-137 -47 0
-138 -48 0
-142 -46 0
-143 -47 0
-144 -48 0
-55 -49 0
-56 -50 0
-57 -51 0
-58 -49 0
-59 -50 0
-60 -51 0
-82 -49 0
-83 -50 0
-84 -51 0
-91 -49 0
-92 -50 0
-93 -51 0
-133 -49 0
-134 -50 0
-135 -51 0
-139 -49 0
-140 -50 0
-141 -51 0
-148 -49 0
-149 -50 0
-150 -51 0
-124 -52 0
-125 -53 0
-126 -54 0
-142 -52 0
-143 -53 0
-144 -54 0
-127 -55 0
-128 -56 0
-129 -57 0
-124 -58 0
-125 -59 0
-126 -60 0
-145 -58 0
-146 -59 0
-147 -60 0
-148 -61 0
-149 -62 0
-150 -63 0
-106 -64 0
-107 -65 0
-108 -66 0
-130 -64 0
-131 -65 0
-132 -66 0
-103 -67 0
-104 -68 0
-105 -69 0
-106 -67 0
-107 -68 0
-108 -69 0
-112 -67 0
-113 -68 0
-114 -69 0
-133 -67 0
-134 -68 0
-135 -69 0
-139 -70 0
-140 -71 0
-141 -72 0
-118 -73 0
-119 -74 0
-120 -75 0
-121 -73 0
-122 -74 0
-123 -75 0
-136 -73 0
-137 -74 0
-138 -75 0
-109 -79 0
-110 -80 0
-111 -81 0
-136 -79 0
-137 -80 0
-138 -81 0
-139 -79 0
-140 -80 0
-141 -81 0
-103 -82 0
-104 -83 0
-105 -84 0
-109 -82 0
-110 -83 0
-111 -84 0
-136 -82 0
-137 -83 0
-138 -84 0
-103 -85 0
-104 -86 0
-105 -87 0
-112 -85 0
-113 -86 0
-114 -87 0
-106 -88 0
-107 -89 0
-108 -90 0
-127 -88 0
-128 -89 0
-129 -90 0
-106 -91 0
-107 -92 0
-108 -93 0
-121 -91 0
-122 -92 0
-123 -93 0
-127 -91 0
-128 -92 0
-129 -93 0
-145 -91 0
-146 -92 0
-147 -93 0
-115 -94 0
-116 -95 0
-117 -96 0
-136 -94 0
-137 -95 0
-138 -96 0
-142 -94 0
-143 -95 0
-144 -96 0
-112 -97 0
-113 -98 0
-114 -99 0
-115 -97 0
-116 -98 0
-117 -99 0
-118 -97 0
-119 -98 0
-120 -99 0
-103 -100 0
-104 -101 0
-105 -102 0
-145 -100 0
-146 -101 0
-147 -102 0
